GLPSOL--GLPK LP/MIP Solver 5.0
Parameter(s) specified in the command line:
 --lp ../modeles/5_464.lp --log 5_464.log
Reading problem data from '../modeles/5_464.lp'...
2341 rows, 4650 columns, 16255 non-zeros
2320 integer variables, all of which are binary
7002 lines were read
GLPK Integer Optimizer 5.0
2341 rows, 4650 columns, 16255 non-zeros
2320 integer variables, all of which are binary
Preprocessing...
2290 constraint coefficient(s) were reduced
2341 rows, 4645 columns, 16250 non-zeros
2320 integer variables, all of which are binary
Scaling...
 A: min|aij| =  7.432e-05  max|aij| =  4.000e+00  ratio =  5.382e+04
GM: min|aij| =  6.565e-02  max|aij| =  1.523e+01  ratio =  2.320e+02
EQ: min|aij| =  4.310e-03  max|aij| =  1.000e+00  ratio =  2.320e+02
2N: min|aij| =  3.906e-03  max|aij| =  1.758e+00  ratio =  4.499e+02
Constructing initial basis...
Size of triangular part is 2341
Solving LP relaxation...
GLPK Simplex Optimizer 5.0
2341 rows, 4645 columns, 16250 non-zeros
      0: obj =   1.000000000e+01 inf =   2.450e+01 (11)
    134: obj =   4.381334597e-01 inf =   0.000e+00 (0)
*   430: obj =  -2.236022765e+00 inf =   9.744e-16 (0)
OPTIMAL LP SOLUTION FOUND
Integer optimization begins...
Long-step dual simplex will be used
+   430: mip =     not found yet >=              -inf        (1; 0)
+   696: >>>>>  -2.236022765e+00 >=  -2.236022765e+00 < 0.1% (266; 0)
+   696: mip =  -2.236022765e+00 >=     tree is empty   0.0% (0; 531)
INTEGER OPTIMAL SOLUTION FOUND
Time used:   1.0 secs
Memory used: 6.8 Mb (7109903 bytes)
